p cnf 63 195
a 51 19 0
e 1 2 3 4 5 6 7 8 9 10 11 12 13 14 15 16 17 18 20 21 22 23 24 25 26 27 28 29 30 31 32 33 34 35 36 37 38 39 40 41 42 43 44 45 46 47 48 49 50 52 53 54 55 56 57 58 59 60 61 62 63 0
3 1 0
3 2 0
-1 -2 -3 0
-5 -2 0
-5 4 0
2 -4 5 0
-6 -3 0
-6 5 0
3 -5 6 0
9 7 0
9 8 0
-7 -8 -9 0
10 9 0
10 4 0
-9 -4 -10 0
6 -10 -11 0
-6 10 -11 0
6 10 11 0
-6 -10 11 0
-14 -12 0
-14 13 0
12 -13 14 0
16 14 0
16 15 0
-14 -15 -16 0
17 1 0
17 16 0
-1 -16 -17 0
17 -18 0
-17 -18 0
7 -12 -19 0
-7 12 -19 0
7 12 19 0
-7 -12 19 0
20 14 0
20 19 0
-14 -19 -20 0
-18 -20 -21 0
18 20 -21 0
-18 20 21 0
18 -20 21 0
-21 -19 -22 0
21 19 -22 0
-21 19 22 0
21 -19 22 0
-23 7 0
-23 -8 0
-7 8 23 0
24 -4 0
24 -8 0
4 8 -24 0
-25 23 0
-25 24 0
-23 -24 25 0
26 -9 0
26 7 0
9 -7 -26 0
27 -18 0
27 -26 0
18 26 -27 0
28 -25 0
28 27 0
25 -27 -28 0
30 -14 0
30 29 0
14 -29 -30 0
28 -30 -31 0
-28 30 -31 0
28 30 31 0
-28 -30 31 0
12 -32 -33 0
-12 32 -33 0
12 32 33 0
-12 -32 33 0
31 33 -34 0
-31 -33 -34 0
31 -33 34 0
-31 33 34 0
-35 -22 0
-35 -34 0
22 34 35 0
36 14 0
36 -7 0
-14 7 -36 0
37 36 0
37 -20 0
-36 20 -37 0
-19 26 -38 0
19 -26 -38 0
-19 -26 38 0
19 26 38 0
17 -4 -39 0
-17 4 -39 0
17 4 39 0
-17 -4 39 0
-40 -20 0
-40 4 0
20 -4 40 0
-41 39 0
-41 -40 0
-39 40 41 0
42 38 0
42 -41 0
-38 41 -42 0
-43 -37 0
-43 -42 0
37 42 43 0
-44 -35 0
-44 -43 0
35 43 44 0
-45 -11 0
-45 -44 0
11 44 45 0
46 -2 0
46 13 0
2 -13 -46 0
47 46 0
47 15 0
-46 -15 -47 0
-36 -14 -48 0
36 14 -48 0
-36 14 48 0
36 -14 48 0
49 47 0
49 48 0
-47 -48 -49 0
-20 -39 -50 0
20 39 -50 0
-20 39 50 0
20 -39 50 0
-51 -7 0
-51 50 0
7 -50 51 0
52 16 0
52 18 0
-16 -18 -52 0
-51 -52 -53 0
51 52 -53 0
-51 52 53 0
51 -52 53 0
-54 -16 0
-54 -4 0
16 4 54 0
-54 -1 -55 0
54 1 -55 0
-54 1 55 0
54 -1 55 0
56 -46 0
56 -13 0
46 13 -56 0
57 12 0
57 -56 0
-12 56 -57 0
-55 57 -58 0
55 -57 -58 0
-55 -57 58 0
55 57 58 0
59 53 0
59 -58 0
-53 58 -59 0
49 -59 -60 0
-49 59 -60 0
49 59 60 0
-49 -59 60 0
15 2 -61 0
-15 -2 -61 0
15 -2 61 0
-15 2 61 0
-60 61 -62 0
60 -61 -62 0
-60 -61 62 0
60 61 62 0
45 -62 -63 0
-45 62 -63 0
45 62 63 0
-45 -62 63 0
7 -8 58 -61 0
-37 -50 43 40 0
-10 -11 -42 -33 27 5 0
54 55 23 0
-58 50 -46 -56 -35 45 -20 0
36 -27 -4 43 0
26 14 -34 -38 13 -10 0
12 3 26 32 0
-1 -27 57 -55 11 43 0
41 44 -61 -59 -47 42 0
53 -48 -24 0
-50 9 -57 42 4 -30 0
30 -7 46 11 -44 0
60 39 61 7 0
26 8 0
-26 42 -24 -48 0
-33 -23 41 0
41 62 46 7 32 -61 -21 0
63 0
